% Instance Difficile

% Nombre de machines et d'opérations
m = 10;
n = 20;

% Temps de traitement pour chaque opération (en minutes)
t = [6, 10, 3, 8, 7, 5, 12, 4, 9, 11, 13, 2, 15, 8, 6, 7, 14, 3, 9, 10];

% Poids de chaque opération
w = [4, 2, 6, 1, 5, 3, 4, 6, 2, 3, 7, 5, 1, 8, 6, 3, 4, 5, 2, 7];
